32      4       
14      13      13      12      
0       0       0       0       0       3       2       3       4       
6       0       3       0       0       3       12      18      27      
4       0       3       0       0       2       6       10      
9       0       0       7       0       3       5       7       22      
5       1       0       0       0       2       14      30      
10      0       4       0       0       3       8       19      24      
10      0       3       0       0       3       9       11      23      
1       6       0       0       0       1       26      
1       10      0       0       0       3       13      20      31      
7       9       0       0       0       1       15      
2       0       0       0       2       1       25      
7       0       7       0       0       1       21      
6       3       0       0       0       1       17      
1       8       0       0       0       2       16      17      
10      0       0       0       3       1       23      
9       0       0       0       7       1       20      
4       0       8       0       0       1       25      
6       0       0       9       0       1       24      
10      0       2       0       0       1       21      
2       0       3       0       0       1       25      
5       0       3       0       0       1       22      
4       0       0       8       0       2       29      30      
7       0       0       2       0       1       28      
6       0       4       0       0       2       26      31      
4       0       0       0       8       1       29      
10      0       0       0       4       1       29      
4       7       0       0       0       1       31      
4       0       6       0       0       1       30      
3       5       0       0       0       1       32      
10      0       0       9       0       1       32      
8       0       1       0       0       1       32      
0       0       0       0       0       0       